p cnf 50 66
-1 39 45 -11 0 
-2 -3 12 33 36 38 -4 9 46 0 
-5 16 37 46 0 
-6 47 0 
-7 14 23 35 43 48 -32 0 
-8 42 -9 4 45 -11 0 
-10 -7 14 23 35 43 46 0 
-8 42 -3 12 33 36 38 47 0 
-11 -7 14 23 35 43 46 0 
-10 -7 14 23 35 43 47 0 
-3 12 33 36 38 47 0 
-7 14 23 35 43 46 0 
-12 3 33 36 38 45 -11 0 
-13 47 0 
-13 46 0 
-14 7 23 35 43 -15 48 -32 0 
-16 5 37 45 -11 0 
-5 16 37 47 0 
-17 20 24 -7 14 23 35 43 -18 47 0 
-6 46 0 
-19 31 45 -11 0 
-20 17 24 -7 14 23 35 43 45 -11 0 
-7 14 23 35 43 -17 20 24 46 0 
-21 30 45 -11 0 
-7 14 23 35 43 47 0 
-3 12 33 36 38 46 0 
-7 14 23 35 43 -22 45 -11 0 
-23 7 14 35 43 45 -11 0 
-24 17 20 48 -32 0 
-13 -25 -26 45 -11 0 
-3 12 33 36 38 -22 45 -11 0 
-27 45 -11 0 
-28 -3 12 33 36 38 -29 46 0 
-30 21 47 0 
-31 19 -14 7 23 35 43 45 -11 0 
-3 12 33 36 38 -16 5 37 45 -11 0 
-32 49 0 
-8 42 -33 3 12 36 38 48 -32 0 
-30 21 46 0 
-34 50 0 
-31 19 -17 20 24 -35 7 14 23 43 -36 3 12 33 38 45 -11 0 
-21 30 -28 -2 -37 5 16 -38 3 12 33 36 45 -11 0 
-4 9 -30 21 47 0 
-30 21 -5 16 37 47 0 
-31 19 -30 21 46 0 
-2 -5 16 37 46 0 
-7 14 23 35 43 -20 17 24 45 -11 0 
-31 19 -17 20 24 -39 1 45 -11 0 
-2 -31 19 -39 1 45 -11 0 
-28 -5 16 37 46 0 
-5 16 37 -40 47 0 
-5 16 37 -40 46 0 
-3 12 33 36 38 45 -11 0 
-5 16 37 -41 47 0 
-42 8 -1 39 45 -11 0 
-43 7 14 23 35 45 -11 0 
-14 7 23 35 43 45 -11 0 
-44 -3 12 33 36 38 46 0 
-28 -3 12 33 36 38 46 0 
-2 -30 21 47 0 
-44 45 -11 0 
-3 12 33 36 38 -20 17 24 45 -11 0 
-42 8 -3 12 33 36 38 -20 17 24 45 -11 0 
-28 -30 21 46 0 
-28 -3 12 33 36 38 -20 17 24 45 -11 0 
-2 -6 47 0 
